c 10 promenne 10 klauzuli
c weights 76 81 77 18 47 62 47 37 23 23
p cnf 10 10
1 -2 3 -4 6 -7 8 9 -10 0
1 2 -4 6 7 -8 10 0
1 -2 4 -5 6 -7 8 10 0
1 2 -4 -5 -6 7 8 -10 0
1 2 -5 -6 7 10 0
-2 -3 -6 -9 -10 0
-1 -2 4 -5 -6 -7 -8 -9 0
1 2 3 4 5 -6 -7 8 -9 0
3 -4 -5 -6 -9 0
1 3 -4 -6 -7 -8 9 0
